c DIMACS CNF format
c Benchmark problem 06 - UNSAT instance
c This problem contains a logical contradiction
c Generated for SAT solver testing
c
c Variables: 8
c Clauses: 15
c Expected: UNSAT
c
p cnf 8 15
c Core contradiction based on variable 1
1 2 3 0
-1 2 3 0
1 -2 3 0
1 2 -3 0
-1 -2 3 0
-1 2 -3 0
1 -2 -3 0
-1 -2 -3 0
c Additional constraints to ensure UNSAT
4 5 0
-4 5 0
4 -5 0
-4 -5 0
c Linking constraints
1 6 7 0
-6 -7 8 0
-8 0